python/teste/teste12
3 3
2 10 1 1 0 9
1 1 2 2 0 4
2 5 1 2 0 4
