python/teste12.lp
\ LP format - for model browsing. Use MPS format to capture full model detail.
Minimize
  - 3 x0 - 4 x1 + 5 x2 - 3 x3
Subject To
 constr(0): 2 x0 + 2 x1 + 4 x2 + 2 x4 = 6
 constr(1): 3 x0 + 2 x1 + 2 x2 + 3 x3 + 5 x4 = 8
Bounds
 x0 <= 4
 x1 <= 4
 x2 <= 3
 x3 <= 1
 x4 <= 2
Generals
 x0 x1 x2 x3 x4
End
